Instance name : SB_bar-n100-6
Authors : 
Date : 
Reference 
Solution
Route 1 : 43 93 16 41 66 12 91 6 62 42 28 18 68 56 8 35 85 92 58 78 39 27 77 36 33 83 89 86 
Route 2 : 4 31 54 81 34 48 40 25 30 90 75 84 19 44 80 98 23 73 69 94 45 49 99 95 
Route 3 : 29 20 70 79 37 47 97 1 87 51 7 57 5 17 2 67 21 71 14 55 52 10 64 50 60 15 100 65 
Route 4 : 32 38 22 88 72 82 9 13 26 63 76 11 3 59 61 53 24 46 96 74 
